============================[ Problem Statistics ]=============================|                                                                             ||  Number of variables:          4242                                         ||  Number of clauses:           10345                                         ||  Parse time:                   0.72 s                                       ||                                                                             |============================[ Search Statistics ]==============================| Conflicts |          ORIGINAL         |          LEARNT          | Progress ||           |    Vars  Clauses Literals |    Limit  Clauses Lit/Cl |          |===============================================================================|       100 |    1591     6550  1168451 |     2401      100     53 | 62.501 % ||       250 |    1591     6550  1168451 |     2641      250     75 | 62.495 % |===============================================================================restarts              : 3conflicts             : 397            (357 /sec)decisions             : 661            (0.00 % random) (594 /sec)propagations          : 12050          (10836 /sec)conflict literals     : 32900          (94.55 % deleted)CPU time              : 1.112 sSATISFIABLE